
50
15180

683 783
92 192
618 718
842 942
835 935
516 616
632 732
370 470
529 629
108 208
683 783
601 701
282 382
379 479
737 837
444 544
960 1060
972 1072
839 939
92 192
76 176
289 389
362 462
705 805
827 927
563 663
640 740
574 674
35 135
527 627
214 314
417 517
9 109
656 756
911 1011
69 169
581 681
24 124
352 452
160 260
861 961
729 829
897 997
218 318
719 819
700 800
511 611
917 1017
625 725
283 383
